NAME : in_house_8_22
TYPE : TSP
DIMENSION : 8
EDGE_WEIGHT_TYPE : EXPLICIT
EDGE_WEIGHT_FORMAT : UPPER_ROW
COMMENT : INVERSION_SHIFT=4
EDGE_WEIGHT_SECTION
42
2
21
21
44
19
43
6
59
61
59
37
43
17
3
23
21
58
7
55
14
21
63
35
55
1
11
6
